NAME 
ROWS
 N  OBJ
 L  R0      
 L  R1      
 L  R2      
 E  R3      
 E  R4      
 E  R5      
 E  R6      
 E  R7      
 E  R8      
 E  R9      
 E  R10     
 E  R11     
 E  R12     
 E  R13     
 E  R14     
 E  R15     
 E  R16     
 E  R17     
COLUMNS
    MARKER    'MARKER'                 'INTORG'
    I0(9)     OBJ       -117
    I0(9)     R0        -74
    I0(9)     R1        152
    I0(9)     R2        -177
    I0(9)     R3        18
    I0(9)     R4        2
    I0(9)     R6        12
    I0(9)     R7        6
    I0(9)     R8        14
    I0(9)     R17       1
    I1(9)     OBJ       -15
    I1(9)     R0        -114
    I1(9)     R1        179
    I1(9)     R2        -16
    I1(9)     R3        10
    I1(9)     R4        18
    I1(9)     R5        6
    I1(9)     R6        6
    I1(9)     R7        11
    I1(9)     R17       1
    I2(8)     OBJ       31
    I2(8)     R0        60
    I2(8)     R1        77
    I2(8)     R2        55
    I2(8)     R3        13
    I2(8)     R4        8
    I2(8)     R6        12
    I2(8)     R7        8
    I2(8)     R17       1
    I3(6)     OBJ       -200
    I3(6)     R0        -131
    I3(6)     R1        -110
    I3(6)     R2        -9
    I3(6)     R3        16
    I3(6)     R5        11
    I3(6)     R17       1
    I4(8)     OBJ       -22
    I4(8)     R0        31
    I4(8)     R1        18
    I4(8)     R2        -131
    I4(8)     R3        18
    I4(8)     R4        13
    I4(8)     R5        19
    I4(8)     R6        13
    I4(8)     R17       1
    I5(9)     OBJ       -179
    I5(9)     R0        -52
    I5(9)     R1        -53
    I5(9)     R2        -192
    I5(9)     R3        13
    I5(9)     R5        6
    I5(9)     R6        5
    I5(9)     R7        13
    I5(9)     R8        13
    I5(9)     R17       1
    MARKER    'MARKER'                 'INTEND'
    C6(10)    OBJ       3
    C6(10)    R0        3
    C6(10)    R1        -1
    C6(10)    R2        -1
    C6(10)    R3        12
    C6(10)    R6        19
    C6(10)    R7        15
    C6(10)    R8        17
    C6(10)    R9        9
    C6(10)    R10       12
    C6(10)    R15       12
    C7(11)    OBJ       -2
    C7(11)    R0        7
    C7(11)    R1        -2
    C7(11)    R2        4
    C7(11)    R4        15
    C7(11)    R7        3
    C7(11)    R8        12
    C7(11)    R10       2
    C7(11)    R11       1
    C7(11)    R12       1
    C7(11)    R13       7
    C7(11)    R14       2
    C8(12)    OBJ       -9
    C8(12)    R0        3
    C8(12)    R1        9
    C8(12)    R2        -3
    C8(12)    R5        13
    C8(12)    R6        18
    C8(12)    R7        8
    C8(12)    R8        14
    C8(12)    R10       17
    C8(12)    R12       18
    C8(12)    R13       1
    C8(12)    R14       2
    C8(12)    R15       8
    C9(12)    OBJ       9
    C9(12)    R1        -2
    C9(12)    R3        13
    C9(12)    R4        14
    C9(12)    R5        12
    C9(12)    R6        5
    C9(12)    R7        10
    C9(12)    R8        6
    C9(12)    R9        4
    C9(12)    R11       14
    C9(12)    R12       7
    C9(12)    R13       11
    C9(12)    R15       19
    C10(12)   OBJ       8
    C10(12)   R0        -6
    C10(12)   R1        -5
    C10(12)   R2        -5
    C10(12)   R4        1
    C10(12)   R5        8
    C10(12)   R6        -1
    C10(12)   R7        -1
    C10(12)   R8        17
    C10(12)   R11       -1
    C10(12)   R12       12
    C10(12)   R14       12
    C10(12)   R16       9
    C11(13)   OBJ       -5
    C11(13)   R0        -7
    C11(13)   R1        3
    C11(13)   R2        4
    C11(13)   R3        -1
    C11(13)   R4        3
    C11(13)   R5        15
    C11(13)   R9        8
    C11(13)   R11       9
    C11(13)   R12       13
    C11(13)   R13       9
    C11(13)   R14       2
    C11(13)   R15       11
    C11(13)   R16       13
    C12(11)   OBJ       -3
    C12(11)   R0        1
    C12(11)   R1        -8
    C12(11)   R2        4
    C12(11)   R3        4
    C12(11)   R5        14
    C12(11)   R10       10
    C12(11)   R11       7
    C12(11)   R13       9
    C12(11)   R14       15
    C12(11)   R15       13
    C12(11)   R16       7
    C13(13)   OBJ       -6
    C13(13)   R0        -5
    C13(13)   R1        -10
    C13(13)   R2        2
    C13(13)   R3        10
    C13(13)   R6        18
    C13(13)   R7        4
    C13(13)   R8        6
    C13(13)   R9        5
    C13(13)   R10       17
    C13(13)   R11       6
    C13(13)   R12       9
    C13(13)   R14       5
    C13(13)   R15       8
    C14(12)   OBJ       4
    C14(12)   R0        -1
    C14(12)   R1        4
    C14(12)   R2        1
    C14(12)   R6        10
    C14(12)   R7        6
    C14(12)   R8        7
    C14(12)   R10       13
    C14(12)   R11       18
    C14(12)   R13       17
    C14(12)   R14       11
    C14(12)   R15       19
    C14(12)   R16       -1
    C15(1)    R3        1
    C16(1)    R4        1
    C17(1)    R5        1
    C18(1)    R6        1
    C19(1)    R7        1
    C20(1)    R8        1
    C21(1)    R9        1
    C22(1)    R10       1
    C23(1)    R11       1
    C24(1)    R12       1
    C25(1)    R13       1
    C26(1)    R14       1
    C27(1)    R15       1
    C28(1)    R16       1
    C29(1)    R17       1
RHS
    RHS1      R0        -1.9059801335166421e+02
    RHS1      R1        -176.780267280992
    RHS1      R2        -1.7001266426386249e+02
    RHS1      R3        73
    RHS1      R4        64
    RHS1      R5        82
    RHS1      R6        60
    RHS1      R7        60
    RHS1      R8        81
    RHS1      R9        51
    RHS1      R10       95
    RHS1      R11       82
    RHS1      R12       83
    RHS1      R13       88
    RHS1      R14       50
    RHS1      R15       65
    RHS1      R16       80
    RHS1      R17       2
BOUNDS
 UP BND1      I0(9)     1
 UP BND1      I1(9)     1
 UP BND1      I2(8)     1
 UP BND1      I3(6)     1
 UP BND1      I4(8)     1
 UP BND1      I5(9)     1
ENDATA
